
Gurobi 9.5.2 (mac64[arm]) logging started Mon Apr 24 18:02:27 2023

Set parameter LogFile to value "Java/output/iterative_model/scenario_seed_4_nJob_50_machineCount_1/mip_increment_2/log.txt"
Gurobi Optimizer version 9.5.2 build v9.5.2rc0 (mac64[arm])
Thread count: 8 physical cores, 8 logical processors, using up to 8 threads
Optimize a model with 1298 rows, 10302 columns and 73110 nonzeros
Model fingerprint: 0xec07d196
Variable types: 0 continuous, 10302 integer (10302 binary)
Coefficient statistics:
  Matrix range     [1e+00, 4e+02]
  Objective range  [2e+01, 1e+07]
  Bounds range     [1e+00, 1e+00]
  RHS range        [1e+00, 1e+00]
Found heuristic solution: objective 6.555390e+07
Presolve removed 33 rows and 678 columns
Presolve time: 0.09s
Presolved: 1265 rows, 9624 columns, 66185 nonzeros
Variable types: 0 continuous, 9624 integer (9612 binary)
Found heuristic solution: objective 6.028638e+07

Root relaxation: objective 1.566607e+04, 2510 iterations, 0.09 seconds (0.20 work units)

    Nodes    |    Current Node    |     Objective Bounds      |     Work
 Expl Unexpl |  Obj  Depth IntInf | Incumbent    BestBd   Gap | It/Node Time

     0     0 15666.0714    0  106 6.0286e+07 15666.0714   100%     -    0s
H    0     0                    2.370834e+07 15666.0714   100%     -    0s
H    0     0                    2.368504e+07 15666.0714   100%     -    0s
H    0     0                    1.542082e+07 15666.0714   100%     -    0s
H    0     0                    1013296.0000 15703.0666  98.5%     -    0s
     0     0 15703.0666    0  186 1013296.00 15703.0666  98.5%     -    0s
H    0     0                    261744.00000 15703.0666  94.0%     -    0s
     0     0 15703.0791    0  190 261744.000 15703.0791  94.0%     -    0s
     0     0 15703.0791    0  192 261744.000 15703.0791  94.0%     -    0s
     0     0 15738.6865    0  188 261744.000 15738.6865  94.0%     -    0s
H    0     0                    241776.00000 15738.6865  93.5%     -    0s
     0     0 15738.6865    0   99 241776.000 15738.6865  93.5%     -    0s
H    0     0                    76432.000000 15738.6865  79.4%     -    0s
     0     0 15738.6865    0  215 76432.0000 15738.6865  79.4%     -    1s
H    0     0                    76176.000000 15738.6865  79.3%     -    1s
     0     0 15741.4078    0  235 76176.0000 15741.4078  79.3%     -    1s
     0     0 15742.0002    0  232 76176.0000 15742.0002  79.3%     -    1s
     0     0 15742.1196    0  227 76176.0000 15742.1196  79.3%     -    1s
     0     0 15742.1196    0  227 76176.0000 15742.1196  79.3%     -    1s
     0     0 15755.3836    0  282 76176.0000 15755.3836  79.3%     -    1s
H    0     0                    76112.000000 15755.3836  79.3%     -    1s
H    0     0                    76080.000000 15755.3836  79.3%     -    1s
     0     0 15757.0722    0  284 76080.0000 15757.0722  79.3%     -    1s
     0     0 15757.1014    0  285 76080.0000 15757.1014  79.3%     -    1s
H    0     0                    31280.000000 15757.1014  49.6%     -    1s
     0     0 15801.8535    0  296 31280.0000 15801.8535  49.5%     -    1s
H    0     0                    31216.000000 15801.8535  49.4%     -    1s
H    0     0                    18352.000000 15801.8535  13.9%     -    1s
     0     0 15805.5296    0  293 18352.0000 15805.5296  13.9%     -    1s
     0     0 15806.2438    0  293 18352.0000 15806.2438  13.9%     -    1s
     0     0 15806.2703    0  296 18352.0000 15806.2703  13.9%     -    1s
     0     0 15828.0654    0  334 18352.0000 15828.0654  13.8%     -    1s
H    0     0                    18224.000000 15828.0654  13.1%     -    1s
     0     0 15833.7076    0  334 18224.0000 15833.7076  13.1%     -    1s
     0     0 15835.8189    0  351 18224.0000 15835.8189  13.1%     -    1s
     0     0 15836.4474    0  354 18224.0000 15836.4474  13.1%     -    1s
     0     0 15836.8728    0  354 18224.0000 15836.8728  13.1%     -    1s
     0     0 15836.9146    0  356 18224.0000 15836.9146  13.1%     -    1s
H    0     0                    17904.000000 15836.9146  11.5%     -    2s
     0     0 15843.7689    0  342 17904.0000 15843.7689  11.5%     -    2s
     0     0 15845.3376    0  350 17904.0000 15845.3376  11.5%     -    2s
     0     0 15846.0383    0  362 17904.0000 15846.0383  11.5%     -    2s
     0     0 15846.2407    0  369 17904.0000 15846.2407  11.5%     -    2s
     0     0 15846.5053    0  371 17904.0000 15846.5053  11.5%     -    2s
     0     0 15846.6981    0  372 17904.0000 15846.6981  11.5%     -    2s
     0     0 15846.7342    0  380 17904.0000 15846.7342  11.5%     -    2s
H    0     0                    17872.000000 15846.7342  11.3%     -    2s
     0     0 15853.4235    0  371 17872.0000 15853.4235  11.3%     -    2s
     0     0 15854.6022    0  377 17872.0000 15854.6022  11.3%     -    2s
     0     0 15854.8182    0  374 17872.0000 15854.8182  11.3%     -    2s
     0     0 15854.8279    0  379 17872.0000 15854.8279  11.3%     -    2s
     0     0 15859.5224    0  382 17872.0000 15859.5224  11.3%     -    2s
     0     0 15860.8236    0  394 17872.0000 15860.8236  11.3%     -    2s
     0     0 15861.2081    0  390 17872.0000 15861.2081  11.3%     -    2s
     0     0 15861.2631    0  386 17872.0000 15861.2631  11.3%     -    2s
     0     0 15864.9249    0  397 17872.0000 15864.9249  11.2%     -    2s
     0     0 15866.3097    0  394 17872.0000 15866.3097  11.2%     -    2s
     0     0 15866.7618    0  403 17872.0000 15866.7618  11.2%     -    2s
     0     0 15866.8064    0  409 17872.0000 15866.8064  11.2%     -    2s
     0     0 15871.4389    0  410 17872.0000 15871.4389  11.2%     -    2s
     0     0 15873.3290    0  432 17872.0000 15873.3290  11.2%     -    2s
     0     0 15873.7926    0  435 17872.0000 15873.7926  11.2%     -    2s
     0     0 15873.8812    0  439 17872.0000 15873.8812  11.2%     -    2s
     0     0 15881.5905    0  415 17872.0000 15881.5905  11.1%     -    3s
     0     0 15883.8336    0  408 17872.0000 15883.8336  11.1%     -    3s
     0     0 15884.6469    0  413 17872.0000 15884.6469  11.1%     -    3s
     0     0 15884.8353    0  416 17872.0000 15884.8353  11.1%     -    3s
H    0     0                    17840.000000 15884.8353  11.0%     -    3s
     0     0 15889.5261    0  420 17840.0000 15889.5261  10.9%     -    3s
H    0     0                    17680.000000 15889.5261  10.1%     -    3s
     0     0 15892.4586    0  430 17680.0000 15892.4586  10.1%     -    3s
     0     0 15893.2389    0  433 17680.0000 15893.2389  10.1%     -    3s
     0     0 15893.2732    0  439 17680.0000 15893.2732  10.1%     -    3s
     0     0 15896.3848    0  441 17680.0000 15896.3848  10.1%     -    3s
     0     0 15897.5342    0  451 17680.0000 15897.5342  10.1%     -    3s
     0     0 15897.9436    0  456 17680.0000 15897.9436  10.1%     -    3s
     0     0 15897.9680    0  459 17680.0000 15897.9680  10.1%     -    3s
     0     0 15902.8026    0  448 17680.0000 15902.8026  10.1%     -    3s
     0     0 15905.0011    0  464 17680.0000 15905.0011  10.0%     -    3s
     0     0 15905.2232    0  471 17680.0000 15905.2232  10.0%     -    3s
H    0     0                    17520.000000 15905.2232  9.22%     -    3s
     0     0 15907.6467    0  476 17520.0000 15907.6467  9.20%     -    3s
     0     0 15908.1153    0  480 17520.0000 15908.1153  9.20%     -    3s
     0     0 15908.5273    0  466 17520.0000 15908.5273  9.20%     -    4s
     0     0 15908.5849    0  479 17520.0000 15908.5849  9.20%     -    4s
H    0     0                    17424.000000 15908.5849  8.70%     -    4s
     0     0 15910.7941    0  467 17424.0000 15910.7941  8.68%     -    4s
     0     0 15910.7941    0  461 17424.0000 15910.7941  8.68%     -    4s
     0     0 15910.8137    0  111 17424.0000 15910.8137  8.68%     -    4s
H    0     0                    17296.000000 15910.8137  8.01%     -    4s
H    0     0                    17264.000000 15910.8137  7.84%     -    4s
     0     0 15910.8137    0  274 17264.0000 15910.8137  7.84%     -    4s
     0     0 15910.8137    0  319 17264.0000 15910.8137  7.84%     -    4s
     0     0 15910.8137    0  365 17264.0000 15910.8137  7.84%     -    5s
     0     0 15910.8137    0  411 17264.0000 15910.8137  7.84%     -    5s
H    0     0                    17168.000000 15910.8137  7.32%     -    5s
     0     0 15910.8137    0  415 17168.0000 15910.8137  7.32%     -    5s
     0     0 15910.8137    0  427 17168.0000 15910.8137  7.32%     -    5s
     0     0 15910.8137    0  441 17168.0000 15910.8137  7.32%     -    5s
     0     0 15910.9772    0  442 17168.0000 15910.9772  7.32%     -    5s
     0     0 15911.0779    0  443 17168.0000 15911.0779  7.32%     -    5s
     0     0 15911.1595    0  446 17168.0000 15911.1595  7.32%     -    5s
     0     0 15911.1862    0  453 17168.0000 15911.1862  7.32%     -    5s
     0     0 15916.6352    0  452 17168.0000 15916.6352  7.29%     -    5s
     0     0 15916.9934    0  454 17168.0000 15916.9934  7.29%     -    5s
     0     0 15919.4231    0  470 17168.0000 15919.4231  7.27%     -    5s
     0     0 15919.4231    0  470 17168.0000 15919.4231  7.27%     -    5s
     0     2 15919.5810    0  468 17168.0000 15919.5810  7.27%     -    6s
H   31    38                    17072.000000 15925.9690  6.71%   811    7s
H   38    38                    17040.000000 15925.9690  6.54%   891    7s
H   66    72                    16944.000000 15935.0028  5.95%   963    8s
H  105   109                    16880.000000 15944.9844  5.54%   918    8s
H  108   109                    16848.000000 15944.9844  5.36%   906    8s
H  146   139                    16592.000000 15944.9844  3.90%   885    9s
   185   180 16050.4889   15  392 16592.0000 15944.9844  3.90%   895   10s
H  311   282                    16432.000000 15944.9844  2.96%   817   12s
   636   475 16212.7438   12  244 16432.0000 15953.3392  2.91%   710   15s
  1453   904 16347.7193   15  188 16432.0000 15978.6724  2.76%   620   20s
  1489   931 16004.6290   14  460 16432.0000 15978.6724  2.76%   620   25s
  1535   969 16268.7592   19  415 16432.0000 15997.0761  2.65%   651   30s
  1681  1039     cutoff   27      16432.0000 16027.8962  2.46%   713   35s
  1932  1106 16128.6396   21  428 16432.0000 16027.8962  2.46%   736   40s
  2128  1131 16100.9623   19  490 16432.0000 16033.8038  2.42%   767   45s
  2360  1196 16117.6942   23  472 16432.0000 16038.7712  2.39%   791   51s
  2595  1291 16279.1597   29  453 16432.0000 16038.7712  2.39%   826   55s
  2840  1324 16289.3675   35  374 16432.0000 16038.7712  2.39%   844   60s
  3158  1327 16389.9258   26  289 16432.0000 16070.0261  2.20%   854   65s
  3403  1347 16151.3651   26  458 16432.0000 16085.3734  2.11%   876   70s
  3671  1390 16187.2646   28  463 16432.0000 16091.3399  2.07%   916   76s
  3893  1445 16271.9641   27  376 16432.0000 16099.8653  2.02%   920   80s
  4280  1461 16179.6752   25  400 16432.0000 16104.2053  1.99%   911   86s
  4615  1580 16143.5805   20  491 16432.0000 16107.8035  1.97%   903   90s
  4862  1657 16331.9895   28  380 16432.0000 16108.8239  1.97%   910   95s
  5084  1790 16190.4740   24  416 16432.0000 16111.7866  1.95%   931  100s
  5405  1923 16358.0496   28  345 16432.0000 16114.5135  1.93%   932  105s
  5881  2062 16252.9833   22  456 16432.0000 16124.9932  1.87%   923  111s
  6268  2192 16320.5576   25  414 16432.0000 16130.6108  1.83%   929  117s
  6510  2250 16396.3595   28  414 16432.0000 16131.8190  1.83%   928  121s
  6683  2298 16428.8608   31  413 16432.0000 16132.2601  1.82%   928  125s
  7101  2476 16241.0181   29  364 16432.0000 16136.8469  1.80%   936  132s
  7404  2555     cutoff   44      16432.0000 16137.5877  1.79%   934  136s
  7718  2628 16348.4148   25  369 16432.0000 16141.2308  1.77%   932  140s
  8249  2739 16312.1337   29  360 16432.0000 16145.1270  1.75%   937  148s
  8501  2810 16362.1032   30  421 16432.0000 16145.5142  1.74%   945  152s
  8802  2912 16278.6613   33  409 16432.0000 16149.9639  1.72%   949  157s
  9068  2992 16404.3235   42  225 16432.0000 16152.1502  1.70%   956  162s
  9378  3068     cutoff   35      16432.0000 16155.3354  1.68%   961  167s
  9679  3140 16400.9923   25  400 16432.0000 16156.3182  1.68%   968  172s
 10015  3225 16363.2238   31  320 16432.0000 16158.5610  1.66%   974  178s
 10265  3328 16363.2206   26  432 16432.0000 16160.1805  1.65%   980  183s
 10683  3421     cutoff   25      16432.0000 16162.3571  1.64%   975  189s
 10992  3516 16341.3362   30  298 16432.0000 16165.5102  1.62%   980  195s
 11287  3576 16365.1364   25  347 16432.0000 16168.1654  1.61%   990  200s

Cutting planes:
  Gomory: 10
  Cover: 118
  Clique: 187
  MIR: 464
  StrongCG: 218
  Flow cover: 110
  GUB cover: 105
  Inf proof: 6
  Zero half: 10
  Mod-K: 6
  RLT: 3
  Relax-and-lift: 2

Explored 11601 nodes (11532470 simplex iterations) in 200.01 seconds (680.62 work units)
Thread count was 8 (of 8 available processors)

Solution count 10: 16432 16592 16848 ... 17296

Time limit reached
Best objective 1.643200000000e+04, best bound 1.617600000000e+04, gap 1.5579%

Gurobi 9.5.2 (mac64[arm]) logging started Mon Apr 24 18:05:48 2023

Set parameter LogFile to value "Java/output/iterative_model/scenario_seed_4_nJob_50_machineCount_1/mip_increment_2/log.txt"
Gurobi Optimizer version 9.5.2 build v9.5.2rc0 (mac64[arm])
Thread count: 8 physical cores, 8 logical processors, using up to 8 threads
Optimize a model with 1296 rows, 7263 columns and 54863 nonzeros
Model fingerprint: 0xbbc1453d
Variable types: 0 continuous, 7263 integer (7263 binary)
Coefficient statistics:
  Matrix range     [1e+00, 4e+02]
  Objective range  [5e+02, 2e+06]
  Bounds range     [1e+00, 1e+00]
  RHS range        [1e+00, 1e+00]
Presolve removed 350 rows and 478 columns
Presolve time: 0.05s
Presolved: 946 rows, 6785 columns, 50195 nonzeros
Variable types: 0 continuous, 6785 integer (6777 binary)

Root relaxation: objective 1.140165e+04, 2894 iterations, 0.11 seconds (0.24 work units)

    Nodes    |    Current Node    |     Objective Bounds      |     Work
 Expl Unexpl |  Obj  Depth IntInf | Incumbent    BestBd   Gap | It/Node Time

     0     0 11401.6481    0  154          - 11401.6481      -     -    0s
     0     0 11421.3007    0  201          - 11421.3007      -     -    0s
     0     0 11421.6298    0  207          - 11421.6298      -     -    0s
     0     0 11422.2643    0  200          - 11422.2643      -     -    0s
     0     0 11434.6923    0  232          - 11434.6923      -     -    0s
     0     0 11436.8884    0  250          - 11436.8884      -     -    0s
     0     0 11437.4726    0  258          - 11437.4726      -     -    0s
     0     0 11437.4789    0  262          - 11437.4789      -     -    0s
H    0     0                    125312.00000 11437.4789  90.9%     -    0s
     0     0 11458.9114    0  265 125312.000 11458.9114  90.9%     -    1s
H    0     0                    125256.00000 11458.9114  90.9%     -    1s
H    0     0                    125248.00000 11458.9114  90.9%     -    1s
     0     0 11464.7488    0  274 125248.000 11464.7488  90.8%     -    1s
     0     0 11466.2114    0  281 125248.000 11466.2114  90.8%     -    1s
     0     0 11467.2599    0  287 125248.000 11467.2599  90.8%     -    1s
     0     0 11467.3120    0  289 125248.000 11467.3120  90.8%     -    1s
     0     0 11467.3148    0  290 125248.000 11467.3148  90.8%     -    1s
     0     0 11506.7077    0  295 125248.000 11506.7077  90.8%     -    1s
H    0     0                    64424.000000 11513.3832  82.1%     -    1s
     0     0 11513.4178    0  301 64424.0000 11513.4178  82.1%     -    1s
     0     0 11514.8649    0  308 64424.0000 11514.8649  82.1%     -    1s
     0     0 11514.9726    0  315 64424.0000 11514.9726  82.1%     -    1s
     0     0 11514.9831    0  315 64424.0000 11514.9831  82.1%     -    1s
     0     0 11531.4419    0  325 64424.0000 11531.4419  82.1%     -    1s
H    0     0                    64368.000000 11531.4419  82.1%     -    1s
     0     0 11531.4419    0  155 64368.0000 11531.4419  82.1%     -    1s
     0     0 11531.4419    0  259 64368.0000 11531.4419  82.1%     -    2s
     0     0 11539.4368    0  282 64368.0000 11539.4368  82.1%     -    2s
     0     0 11548.8800    0  311 64368.0000 11548.8800  82.1%     -    2s
     0     0 11550.1638    0  313 64368.0000 11550.1638  82.1%     -    2s
     0     0 11550.8867    0  322 64368.0000 11550.8867  82.1%     -    2s
     0     0 11550.9126    0  322 64368.0000 11550.9126  82.1%     -    2s
     0     0 11748.9444    0  310 64368.0000 11748.9444  81.7%     -    2s
     0     0 11784.5631    0  292 64368.0000 11784.5631  81.7%     -    2s
     0     0 11931.5993    0  282 64368.0000 11931.5993  81.5%     -    2s
     0     0 11934.7396    0  288 64368.0000 11934.7396  81.5%     -    2s
     0     0 11935.2589    0  298 64368.0000 11935.2589  81.5%     -    2s
     0     0 11935.3750    0  296 64368.0000 11935.3750  81.5%     -    2s
     0     0 11991.9841    0  303 64368.0000 11991.9841  81.4%     -    2s
H    0     0                    64144.000000 11991.9841  81.3%     -    2s
     0     0 12206.9791    0  320 64144.0000 12206.9791  81.0%     -    2s
     0     0 12212.5569    0  327 64144.0000 12212.5569  81.0%     -    2s
     0     0 12213.1696    0  341 64144.0000 12213.1696  81.0%     -    2s
     0     0 12213.5757    0  341 64144.0000 12213.5757  81.0%     -    2s
     0     0 12237.2801    0  351 64144.0000 12237.2801  80.9%     -    3s
H    0     0                    64136.000000 12237.2801  80.9%     -    3s
H    0     0                    39936.000000 12237.2801  69.4%     -    3s
     0     0 12248.7531    0  309 39936.0000 12248.7531  69.3%     -    3s
     0     0 12254.6009    0  317 39936.0000 12254.6009  69.3%     -    3s
     0     0 12255.7776    0  319 39936.0000 12255.7776  69.3%     -    3s
     0     0 12255.8194    0  325 39936.0000 12255.8194  69.3%     -    3s
H    0     0                    35648.000000 12255.8194  65.6%     -    3s
     0     0 12257.0649    0  337 35648.0000 12257.0649  65.6%     -    3s
H    0     0                    35512.000000 12257.0649  65.5%     -    3s
     0     0 12257.4390    0  335 35512.0000 12257.4390  65.5%     -    3s
     0     0 12260.1574    0  340 35512.0000 12260.1574  65.5%     -    3s
     0     0 12260.1574    0  316 35512.0000 12260.1574  65.5%     -    3s
H    0     0                    32696.000000 12260.4013  62.5%     -    4s
H    0     2                    32680.000000 12260.4013  62.5%     -    4s
     0     2 12260.4013    0  316 32680.0000 12260.4013  62.5%     -    4s
H   31    40                    32440.000000 12277.8327  62.2%   816    5s
H   33    40                    24432.000000 12277.8327  49.7%   834    5s
H   38    40                    13672.000000 12277.8327  10.2%   859    5s
H   71    63                    13088.000000 12277.8327  6.19%   618    5s
H   74    63                    12552.000000 12277.8327  2.18%   620    5s
H   78    63                    12496.000000 12277.8327  1.75%   628    5s
H  109    82                    12464.000000 12277.8327  1.49%   529    5s
  1575   398 12398.1140   16  225 12464.0000 12376.8422  0.70%   209   10s
* 3728   253              36    12456.000000 12431.1325  0.20%   149   11s

Cutting planes:
  Gomory: 3
  Cover: 74
  Clique: 117
  MIR: 190
  StrongCG: 94
  GUB cover: 97
  Zero half: 26
  RLT: 10

Explored 4281 nodes (613134 simplex iterations) in 11.94 seconds (29.38 work units)
Thread count was 8 (of 8 available processors)

Solution count 10: 12456 12464 12496 ... 32696

Optimal solution found (tolerance 1.00e-04)
Best objective 1.245600000000e+04, best bound 1.245600000000e+04, gap 0.0000%

Gurobi 9.5.2 (mac64[arm]) logging started Mon Apr 24 18:06:00 2023

Set parameter LogFile to value "Java/output/iterative_model/scenario_seed_4_nJob_50_machineCount_1/mip_increment_2/log.txt"
Gurobi Optimizer version 9.5.2 build v9.5.2rc0 (mac64[arm])
Thread count: 8 physical cores, 8 logical processors, using up to 8 threads
Optimize a model with 1284 rows, 4355 columns and 33253 nonzeros
Model fingerprint: 0x10655300
Variable types: 0 continuous, 4355 integer (4355 binary)
Coefficient statistics:
  Matrix range     [1e+00, 4e+02]
  Objective range  [2e+02, 2e+05]
  Bounds range     [1e+00, 1e+00]
  RHS range        [1e+00, 1e+00]
Presolve removed 651 rows and 323 columns
Presolve time: 0.03s
Presolved: 633 rows, 4032 columns, 30237 nonzeros
Variable types: 0 continuous, 4032 integer (4030 binary)

Root relaxation: objective 5.110000e+03, 1629 iterations, 0.03 seconds (0.05 work units)

    Nodes    |    Current Node    |     Objective Bounds      |     Work
 Expl Unexpl |  Obj  Depth IntInf | Incumbent    BestBd   Gap | It/Node Time

     0     0 5110.00000    0   59          - 5110.00000      -     -    0s
H    0     0                    227345.00000 5110.00000  97.8%     -    0s
H    0     0                    113559.00000 5110.00000  95.5%     -    0s
H    0     0                    78231.000000 5118.38473  93.5%     -    0s
H    0     0                    75987.000000 5118.38473  93.3%     -    0s
     0     0 5118.38473    0   94 75987.0000 5118.38473  93.3%     -    0s
H    0     0                    38807.000000 5118.38473  86.8%     -    0s
     0     0 5119.72901    0   89 38807.0000 5119.72901  86.8%     -    0s
     0     0 5119.80584    0   92 38807.0000 5119.80584  86.8%     -    0s
     0     0 5124.04714    0  117 38807.0000 5124.04714  86.8%     -    0s
     0     0 5124.04714    0  110 38807.0000 5124.04714  86.8%     -    0s
     0     0 5136.89184    0  123 38807.0000 5136.89184  86.8%     -    0s
H    0     0                    30191.000000 5136.89184  83.0%     -    0s
H    0     0                    30157.000000 5136.89184  83.0%     -    0s
     0     0 5137.99113    0  130 30157.0000 5137.99113  83.0%     -    0s
     0     0 5137.99113    0  128 30157.0000 5137.99113  83.0%     -    0s
     0     0 5170.40234    0  107 30157.0000 5170.40234  82.9%     -    0s
     0     0 5171.81967    0  119 30157.0000 5171.81967  82.9%     -    0s
     0     0 5173.75396    0  130 30157.0000 5173.75396  82.8%     -    0s
     0     0 5174.09853    0  141 30157.0000 5174.09853  82.8%     -    0s
     0     0 5174.15327    0  121 30157.0000 5174.15327  82.8%     -    0s
     0     0 5174.15327    0  122 30157.0000 5174.15327  82.8%     -    0s
     0     0 5175.45670    0  162 30157.0000 5175.45670  82.8%     -    0s
     0     0 5176.28849    0  167 30157.0000 5176.28849  82.8%     -    0s
     0     0 5176.29235    0  169 30157.0000 5176.29235  82.8%     -    0s
H    0     0                    9989.0000000 5176.29235  48.2%     -    0s
     0     0 5177.89328    0  133 9989.00000 5177.89328  48.2%     -    0s
     0     0 5177.89328    0   44 9989.00000 5177.89328  48.2%     -    0s
H    0     0                    8757.0000000 5177.89328  40.9%     -    0s
H    0     0                    7421.0000000 5177.89328  30.2%     -    0s
H    0     0                    7051.0000000 5177.89328  26.6%     -    0s
     0     0 5195.14342    0   93 7051.00000 5195.14342  26.3%     -    0s
H    0     0                    6991.0000000 5195.14342  25.7%     -    0s
     0     0 5219.42917    0  105 6991.00000 5219.42917  25.3%     -    0s
     0     0 5219.75332    0  132 6991.00000 5219.75332  25.3%     -    0s
     0     0 5221.00795    0  130 6991.00000 5221.00795  25.3%     -    0s
     0     0 5221.00795    0  133 6991.00000 5221.00795  25.3%     -    0s
     0     0 5432.68528    0  152 6991.00000 5432.68528  22.3%     -    0s
     0     0 5447.50000    0  129 6991.00000 5447.50000  22.1%     -    0s
     0     0 5450.22174    0  174 6991.00000 5450.22174  22.0%     -    0s
     0     0 5451.07349    0  176 6991.00000 5451.07349  22.0%     -    0s
     0     0 5451.16209    0  179 6991.00000 5451.16209  22.0%     -    0s
     0     0 5775.58774    0  152 6991.00000 5775.58774  17.4%     -    0s
     0     0 6065.86078    0  120 6991.00000 6065.86078  13.2%     -    0s
     0     0 6067.92662    0  154 6991.00000 6067.92662  13.2%     -    0s
     0     0 6068.03109    0  139 6991.00000 6068.03109  13.2%     -    0s
     0     0 6824.16477    0   70 6991.00000 6824.16477  2.39%     -    0s
H    0     0                    6983.0000000 6824.16477  2.27%     -    0s
     0     0 6972.00000    0   30 6983.00000 6972.00000  0.16%     -    0s
     0     0 6972.00000    0   59 6983.00000 6972.00000  0.16%     -    0s
     0     0 6973.00000    0   23 6983.00000 6973.00000  0.14%     -    0s
     0     0 6973.00000    0   14 6983.00000 6973.00000  0.14%     -    0s
H    0     0                    6981.0000000 6973.00000  0.11%     -    0s
H    0     0                    6975.0000000 6973.00000  0.03%     -    0s
     0     0 6973.00000    0   19 6975.00000 6973.00000  0.03%     -    0s
H    0     0                    6973.0000000 6973.00000  0.00%     -    0s

Cutting planes:
  Gomory: 1
  Clique: 3
  MIR: 3
  GUB cover: 6
  Zero half: 1

Explored 1 nodes (13134 simplex iterations) in 0.96 seconds (1.40 work units)
Thread count was 8 (of 8 available processors)

Solution count 10: 6973 6975 6981 ... 30157

Optimal solution found (tolerance 1.00e-04)
Best objective 6.973000000000e+03, best bound 6.973000000000e+03, gap 0.0000%

Gurobi 9.5.2 (mac64[arm]) logging started Mon Apr 24 18:06:01 2023

Set parameter LogFile to value "Java/output/iterative_model/scenario_seed_4_nJob_50_machineCount_1/mip_increment_2/log.txt"
Gurobi Optimizer version 9.5.2 build v9.5.2rc0 (mac64[arm])
Thread count: 8 physical cores, 8 logical processors, using up to 8 threads
Optimize a model with 2660 rows, 58838 columns and 707107 nonzeros
Model fingerprint: 0xee74ade5
Variable types: 0 continuous, 58838 integer (58838 binary)
Coefficient statistics:
  Matrix range     [1e+00, 4e+02]
  Objective range  [5e+00, 1e+07]
  Bounds range     [1e+00, 1e+00]
  RHS range        [1e+00, 1e+00]

Warning: Completing partial solution with 58692 unfixed non-continuous variables out of 58838
User MIP start produced solution with objective 31836 (0.04s)
Loaded user MIP start with objective 31836

Presolve removed 29 rows and 3916 columns
Presolve time: 0.68s
Presolved: 2631 rows, 54922 columns, 652903 nonzeros
Variable types: 0 continuous, 54922 integer (54892 binary)
Found heuristic solution: objective 31591.000000
Warning: Markowitz tolerance tightened to 0.03125

Root simplex log...

Iteration    Objective       Primal Inf.    Dual Inf.      Time
   25714    2.5204773e+04   1.453127e+05   0.000000e+00      5s
   53363    2.6659708e+04   6.079815e+04   0.000000e+00     10s
   81547    2.7664038e+04   6.281247e+05   0.000000e+00     15s
   91112    2.7739565e+04   0.000000e+00   0.000000e+00     17s

Root relaxation: objective 2.773956e+04, 91112 iterations, 16.67 seconds (45.72 work units)

    Nodes    |    Current Node    |     Objective Bounds      |     Work
 Expl Unexpl |  Obj  Depth IntInf | Incumbent    BestBd   Gap | It/Node Time

     0     0 27739.5648    0  510 31591.0000 27739.5648  12.2%     -   18s
H    0     0                    31583.000000 27739.5648  12.2%     -   18s
H    0     0                    31038.000000 27739.5648  10.6%     -   18s
H    0     0                    31024.000000 27759.1055  10.5%     -   23s
H    0     0                    30952.000000 27759.1055  10.3%     -   24s
     0     0 27759.1055    0  696 30952.0000 27759.1055  10.3%     -   24s
H    0     0                    30950.000000 27759.1055  10.3%     -   24s
H    0     0                    30891.000000 27759.1055  10.1%     -   24s
     0     0 27764.0776    0  746 30891.0000 27764.0776  10.1%     -   26s
     0     0 27764.2555    0  709 30891.0000 27764.2555  10.1%     -   26s
     0     0 27764.2584    0  716 30891.0000 27764.2584  10.1%     -   26s
     0     0 27775.2286    0  699 30891.0000 27775.2286  10.1%     -   31s
     0     0 27775.2286    0  528 30891.0000 27775.2286  10.1%     -   40s
H    0     0                    30871.000000 27775.2286  10.0%     -   40s
H    0     0                    30817.000000 27775.2286  9.87%     -   41s
     0     0 27775.2286    0  803 30817.0000 27775.2286  9.87%     -   47s
     0     0 27781.4625    0  879 30817.0000 27781.4625  9.85%     -   50s
     0     0 27783.8127    0  830 30817.0000 27783.8127  9.84%     -   53s
     0     0 27783.8307    0  826 30817.0000 27783.8307  9.84%     -   54s
     0     0 27783.8518    0  837 30817.0000 27783.8518  9.84%     -   54s
     0     0 27783.8518    0  834 30817.0000 27783.8518  9.84%     -   54s
H    0     0                    30660.000000 27783.8518  9.38%     -   61s
     0     0 27796.9861    0  943 30660.0000 27796.9861  9.34%     -   61s
H    0     0                    30644.000000 27796.9861  9.29%     -   61s
H    0     0                    30581.000000 27796.9861  9.10%     -   61s
     0     0 27805.3675    0  977 30581.0000 27805.3675  9.08%     -   72s
     0     0 27806.5037    0 1026 30581.0000 27806.5037  9.07%     -   80s
     0     0 27807.1895    0 1059 30581.0000 27807.1895  9.07%     -   82s
     0     0 27807.1946    0 1072 30581.0000 27807.1946  9.07%     -   82s
     0     0 27817.3139    0 1088 30581.0000 27817.3139  9.04%     -   90s
H    0     0                    30359.000000 27817.3139  8.37%     -   90s
     0     0 27826.1660    0 1075 30359.0000 27826.1660  8.34%     -   97s
     0     0 27829.1823    0 1119 30359.0000 27829.1823  8.33%     -  103s
     0     0 27830.5823    0 1073 30359.0000 27830.5823  8.33%     -  106s
     0     0 27830.7331    0 1070 30359.0000 27830.7331  8.33%     -  107s
     0     0 27830.7393    0 1088 30359.0000 27830.7393  8.33%     -  107s
     0     0 27844.4513    0 1113 30359.0000 27844.4513  8.28%     -  114s
H    0     0                    30342.000000 27844.4513  8.23%     -  114s
     0     0 27850.3879    0 1153 30342.0000 27850.3879  8.21%     -  119s
     0     0 27855.3389    0 1177 30342.0000 27855.3389  8.20%     -  125s
     0     0 27856.8240    0 1204 30342.0000 27856.8240  8.19%     -  128s
     0     0 27857.1122    0 1205 30342.0000 27857.1122  8.19%     -  130s
     0     0 27857.1668    0 1200 30342.0000 27857.1668  8.19%     -  130s
     0     0 27857.1713    0 1197 30342.0000 27857.1713  8.19%     -  131s
     0     0 27864.9077    0 1258 30342.0000 27864.9077  8.16%     -  136s
H    0     0                    30338.000000 27864.9077  8.15%     -  136s
     0     0 27870.9903    0 1286 30338.0000 27870.9903  8.13%     -  143s
     0     0 27877.1588    0 1304 30338.0000 27877.1588  8.11%     -  149s
     0     0 27879.3062    0 1379 30338.0000 27879.3062  8.10%     -  155s
     0     0 27879.5705    0 1390 30338.0000 27879.5705  8.10%     -  157s
     0     0 27879.6149    0 1418 30338.0000 27879.6149  8.10%     -  158s
H    0     0                    30154.000000 27879.6149  7.54%     -  165s
     0     0 27883.8949    0 1391 30154.0000 27883.8949  7.53%     -  165s
H    0     0                    30144.000000 27883.8949  7.50%     -  165s
H    0     0                    30131.000000 27883.8949  7.46%     -  165s
     0     0 27887.2648    0 1440 30131.0000 27887.2648  7.45%     -  170s
     0     0 27889.4422    0 1457 30131.0000 27889.4422  7.44%     -  178s
H    0     0                    30073.000000 27889.4422  7.26%     -  181s
     0     0 27889.8673    0 1462 30073.0000 27889.8673  7.26%     -  181s
     0     0 27890.1447    0 1461 30073.0000 27890.1447  7.26%     -  183s
     0     0 27890.1890    0 1444 30073.0000 27890.1890  7.26%     -  183s
     0     0 27892.3132    0 1470 30073.0000 27892.3132  7.25%     -  191s
H    0     0                    30065.000000 27892.3132  7.23%     -  191s
     0     0 27896.0559    0 1484 30065.0000 27896.0559  7.21%     -  201s
     0     0 27897.9576    0 1514 30065.0000 27897.9576  7.21%     -  207s
     0     0 27898.9055    0 1527 30065.0000 27898.9055  7.20%     -  213s
     0     0 27899.3549    0 1542 30065.0000 27899.3549  7.20%     -  216s
H    0     0                    29927.000000 27899.3549  6.78%     -  217s
     0     0 27899.4144    0 1561 29927.0000 27899.4144  6.78%     -  218s
     0     0 27901.7368    0 1497 29927.0000 27901.7368  6.77%     -  226s
H    0     0                    29923.000000 27901.7368  6.75%     -  226s
H    0     0                    29891.000000 27901.7368  6.66%     -  227s
     0     0 27903.7880    0 1552 29891.0000 27903.7880  6.65%     -  231s
     0     0 27904.8475    0 1567 29891.0000 27904.8475  6.64%     -  240s
     0     0 27905.4125    0 1574 29891.0000 27905.4125  6.64%     -  244s
     0     0 27905.6273    0 1572 29891.0000 27905.6273  6.64%     -  246s
     0     0 27905.7452    0 1600 29891.0000 27905.7452  6.64%     -  248s
     0     0 27905.8071    0 1606 29891.0000 27905.8071  6.64%     -  249s
     0     0 27907.4416    0 1593 29891.0000 27907.4416  6.64%     -  253s
H    0     0                    29886.000000 27907.4416  6.62%     -  253s
H    0     0                    29882.000000 27907.4416  6.61%     -  253s
H    0     0                    29642.000000 27907.4416  5.85%     -  254s
     0     0 27909.1072    0 1595 29642.0000 27909.1072  5.85%     -  259s
     0     0 27909.9998    0 1657 29642.0000 27909.9998  5.84%     -  263s
     0     0 27910.4550    0 1636 29642.0000 27910.4550  5.84%     -  266s
     0     0 27910.5793    0 1648 29642.0000 27910.5793  5.84%     -  268s
     0     0 27911.8979    0 1687 29642.0000 27911.8979  5.84%     -  273s
H    0     0                    29638.000000 27911.8979  5.82%     -  273s
H    0     0                    29537.000000 27911.8979  5.50%     -  273s
     0     0 27912.5533    0 1701 29537.0000 27912.5533  5.50%     -  277s
     0     0 27912.9518    0 1738 29537.0000 27912.9518  5.50%     -  280s
     0     0 27913.2535    0 1699 29537.0000 27913.2535  5.50%     -  282s
     0     0 27913.3556    0 1712 29537.0000 27913.3556  5.50%     -  283s
     0     0 27914.8918    0 1739 29537.0000 27914.8918  5.49%     -  288s
H    0     0                    29533.000000 27914.8918  5.48%     -  288s
     0     0 27915.6546    0 1773 29533.0000 27915.6546  5.48%     -  302s
     0     0 27916.1486    0 1792 29533.0000 27916.1486  5.47%     -  305s
     0     0 27916.4151    0 1785 29533.0000 27916.4151  5.47%     -  308s
     0     0 27916.6271    0 1806 29533.0000 27916.6271  5.47%     -  310s
     0     0 27916.7720    0 1823 29533.0000 27916.7720  5.47%     -  311s
     0     0 27918.3684    0 1812 29533.0000 27918.3684  5.47%     -  316s
     0     0 27919.3843    0 1819 29533.0000 27919.3843  5.46%     -  321s
     0     0 27920.5648    0 1819 29533.0000 27920.5648  5.46%     -  326s
     0     0 27921.0048    0 1836 29533.0000 27921.0048  5.46%     -  329s
     0     0 27921.1103    0 1848 29533.0000 27921.1103  5.46%     -  331s
     0     0 27922.1016    0 1849 29533.0000 27922.1016  5.45%     -  335s
     0     0 27923.0751    0 1886 29533.0000 27923.0751  5.45%     -  352s
     0     0 27923.4308    0 1897 29533.0000 27923.4308  5.45%     -  355s
     0     0 27923.6515    0 1927 29533.0000 27923.6515  5.45%     -  357s
     0     0 27923.7958    0 1902 29533.0000 27923.7958  5.45%     -  359s
     0     0 27924.5164    0 1917 29533.0000 27924.5164  5.45%     -  363s
H    0     0                    29529.000000 27924.5164  5.43%     -  363s
     0     0 27924.8967    0 1917 29529.0000 27924.8967  5.43%     -  366s
     0     0 27925.0680    0 1962 29529.0000 27925.0680  5.43%     -  368s
     0     0 27925.7803    0 1913 29529.0000 27925.7803  5.43%     -  373s
     0     0 27925.7803    0 1889 29529.0000 27925.7803  5.43%     -  374s

Cutting planes:
  Cover: 2
  Clique: 285
  MIR: 357
  StrongCG: 186
  GUB cover: 221
  Zero half: 5
  RLT: 1

Explored 1 nodes (787533 simplex iterations) in 387.01 seconds (1024.15 work units)
Thread count was 8 (of 8 available processors)

Solution count 10: 29529 29533 29537 ... 29927

Time limit reached
Best objective 2.952900000000e+04, best bound 2.792600000000e+04, gap 5.4286%
